min: c;

c = 4.05140320627933 * u3_t10_h0 + 3.55748955074059 * u3_t10_h1 + 2.98198312138337 * u3_t4_h2 + 2.98198312138337 * u3_t10_h2 + 3.01665627864272 * u3_t4_h3 + 3.01665627864272 * u3_t10_h3 + 2.95112482372876 * u3_t4_h4 + 2.95112482372876 * u3_t10_h4 + 3.94078676730146 * u3_t4_h5 + 3.94078676730146 * u3_t10_h5 + 4.30719312447953 * u3_t4_h6 + 4.30719312447953 * u3_t10_h6 + 3.96287031898745 * u3_t4_h7 + 3.96287031898745 * u3_t9_h7 + 3.96287031898745 * u3_t10_h7 + 5.46215717484028 * u3_t4_h8 + 5.46215717484028 * u3_t9_h8 + 5.44042492588728 * u3_t4_h9 + 5.44042492588728 * u3_t9_h9 + 4.93905266007066 * u3_t4_h10 + 4.93905266007066 * u3_t6_h10 + 4.93905266007066 * u3_t9_h10 + 4.37916244244687 * u3_t3_h11 + 4.37916244244687 * u3_t4_h11 + 4.37916244244687 * u3_t6_h11 + 4.37916244244687 * u3_t9_h11 + 6.67604422490734 * u3_t3_h12 + 6.67604422490734 * u3_t4_h12 + 6.67604422490734 * u3_t6_h12 + 6.67604422490734 * u3_t9_h12 + 4.2824515096109 * u3_t3_h13 + 4.2824515096109 * u3_t4_h13 + 4.2824515096109 * u3_t5_h13 + 4.2824515096109 * u3_t6_h13 + 4.2824515096109 * u3_t9_h13 + 4.94211331127989 * u3_t3_h14 + 4.94211331127989 * u3_t4_h14 + 4.94211331127989 * u3_t5_h14 + 4.94211331127989 * u3_t6_h14 + 4.94211331127989 * u3_t9_h14 + 5.78731649188055 * u3_t2_h15 + 5.78731649188055 * u3_t3_h15 + 5.78731649188055 * u3_t4_h15 + 5.78731649188055 * u3_t5_h15 + 5.78731649188055 * u3_t6_h15 + 5.78731649188055 * u3_t9_h15 + 5.82884568597013 * u3_t2_h16 + 5.82884568597013 * u3_t4_h16 + 5.82884568597013 * u3_t5_h16 + 5.82884568597013 * u3_t6_h16 + 5.82884568597013 * u3_t9_h16 + 6.15170329350388 * u3_t2_h17 + 6.15170329350388 * u3_t4_h17 + 6.15170329350388 * u3_t6_h17 + 6.15170329350388 * u3_t9_h17 + 6.12522959204717 * u3_t2_h18 + 6.12522959204717 * u3_t6_h18 + 6.12522959204717 * u3_t9_h18 + 5.19393816692988 * u3_t2_h19 + 5.19393816692988 * u3_t9_h19 + 5.48929245584057 * u3_t1_h20 + 5.48929245584057 * u3_t2_h20 + 5.48929245584057 * u3_t8_h20 + 5.48929245584057 * u3_t9_h20 + 5.69074998401818 * u3_t1_h21 + 5.69074998401818 * u3_t2_h21 + 5.69074998401818 * u3_t7_h21 + 5.69074998401818 * u3_t8_h21 + 5.69074998401818 * u3_t9_h21 + 5.25527026365256 * u3_t1_h22 + 5.25527026365256 * u3_t7_h22 + 5.25527026365256 * u3_t8_h22 + 5.85074557020455 * u3_t1_h23 + 5.85074557020455 * u3_t7_h23 + 5.85074557020455 * u3_t8_h23;
0 <= u3_t1_h20 <= 1;
0 <= u3_t1_h21 <= 1;
0 <= u3_t1_h22 <= 1;
0 <= u3_t1_h23 <= 1;
u3_t1_h20 + u3_t1_h21 + u3_t1_h22 + u3_t1_h23 = 2;
0 <= u3_t2_h15 <= 1;
0 <= u3_t2_h16 <= 1;
0 <= u3_t2_h17 <= 1;
0 <= u3_t2_h18 <= 1;
0 <= u3_t2_h19 <= 1;
0 <= u3_t2_h20 <= 1;
0 <= u3_t2_h21 <= 1;
u3_t2_h15 + u3_t2_h16 + u3_t2_h17 + u3_t2_h18 + u3_t2_h19 + u3_t2_h20 + u3_t2_h21 = 3;
0 <= u3_t3_h11 <= 1;
0 <= u3_t3_h12 <= 1;
0 <= u3_t3_h13 <= 1;
0 <= u3_t3_h14 <= 1;
0 <= u3_t3_h15 <= 1;
u3_t3_h11 + u3_t3_h12 + u3_t3_h13 + u3_t3_h14 + u3_t3_h15 = 2;
0 <= u3_t4_h2 <= 1;
0 <= u3_t4_h3 <= 1;
0 <= u3_t4_h4 <= 1;
0 <= u3_t4_h5 <= 1;
0 <= u3_t4_h6 <= 1;
0 <= u3_t4_h7 <= 1;
0 <= u3_t4_h8 <= 1;
0 <= u3_t4_h9 <= 1;
0 <= u3_t4_h10 <= 1;
0 <= u3_t4_h11 <= 1;
0 <= u3_t4_h12 <= 1;
0 <= u3_t4_h13 <= 1;
0 <= u3_t4_h14 <= 1;
0 <= u3_t4_h15 <= 1;
0 <= u3_t4_h16 <= 1;
0 <= u3_t4_h17 <= 1;
u3_t4_h2 + u3_t4_h3 + u3_t4_h4 + u3_t4_h5 + u3_t4_h6 + u3_t4_h7 + u3_t4_h8 + u3_t4_h9 + u3_t4_h10 + u3_t4_h11 + u3_t4_h12 + u3_t4_h13 + u3_t4_h14 + u3_t4_h15 + u3_t4_h16 + u3_t4_h17 = 3;
0 <= u3_t5_h13 <= 1;
0 <= u3_t5_h14 <= 1;
0 <= u3_t5_h15 <= 1;
0 <= u3_t5_h16 <= 1;
u3_t5_h13 + u3_t5_h14 + u3_t5_h15 + u3_t5_h16 = 2;
0 <= u3_t6_h10 <= 1;
0 <= u3_t6_h11 <= 1;
0 <= u3_t6_h12 <= 1;
0 <= u3_t6_h13 <= 1;
0 <= u3_t6_h14 <= 1;
0 <= u3_t6_h15 <= 1;
0 <= u3_t6_h16 <= 1;
0 <= u3_t6_h17 <= 1;
0 <= u3_t6_h18 <= 1;
u3_t6_h10 + u3_t6_h11 + u3_t6_h12 + u3_t6_h13 + u3_t6_h14 + u3_t6_h15 + u3_t6_h16 + u3_t6_h17 + u3_t6_h18 = 2;
0 <= u3_t7_h21 <= 1;
0 <= u3_t7_h22 <= 1;
0 <= u3_t7_h23 <= 1;
u3_t7_h21 + u3_t7_h22 + u3_t7_h23 = 2;
0 <= u3_t8_h20 <= 1;
0 <= u3_t8_h21 <= 1;
0 <= u3_t8_h22 <= 1;
0 <= u3_t8_h23 <= 1;
u3_t8_h20 + u3_t8_h21 + u3_t8_h22 + u3_t8_h23 = 1;
0 <= u3_t9_h7 <= 1;
0 <= u3_t9_h8 <= 1;
0 <= u3_t9_h9 <= 1;
0 <= u3_t9_h10 <= 1;
0 <= u3_t9_h11 <= 1;
0 <= u3_t9_h12 <= 1;
0 <= u3_t9_h13 <= 1;
0 <= u3_t9_h14 <= 1;
0 <= u3_t9_h15 <= 1;
0 <= u3_t9_h16 <= 1;
0 <= u3_t9_h17 <= 1;
0 <= u3_t9_h18 <= 1;
0 <= u3_t9_h19 <= 1;
0 <= u3_t9_h20 <= 1;
0 <= u3_t9_h21 <= 1;
u3_t9_h7 + u3_t9_h8 + u3_t9_h9 + u3_t9_h10 + u3_t9_h11 + u3_t9_h12 + u3_t9_h13 + u3_t9_h14 + u3_t9_h15 + u3_t9_h16 + u3_t9_h17 + u3_t9_h18 + u3_t9_h19 + u3_t9_h20 + u3_t9_h21 = 2;
0 <= u3_t10_h0 <= 1;
0 <= u3_t10_h1 <= 1;
0 <= u3_t10_h2 <= 1;
0 <= u3_t10_h3 <= 1;
0 <= u3_t10_h4 <= 1;
0 <= u3_t10_h5 <= 1;
0 <= u3_t10_h6 <= 1;
0 <= u3_t10_h7 <= 1;
u3_t10_h0 + u3_t10_h1 + u3_t10_h2 + u3_t10_h3 + u3_t10_h4 + u3_t10_h5 + u3_t10_h6 + u3_t10_h7 = 3;
